p cnf 115 408
-5 4 0
-5 -2 0
-4 2 5 0
3 -5 -6 0
-3 5 -6 0
3 5 6 0
-3 -5 6 0
-7 2 0
-7 -6 0
-2 6 7 0
-8 -1 0
-8 -7 0
1 7 8 0
9 10 -11 0
-9 -10 -11 0
9 -10 11 0
-9 10 11 0
12 8 0
12 11 0
-8 -11 -12 0
12 -13 -14 0
-12 13 -14 0
12 13 14 0
-12 -13 14 0
15 -10 -16 0
-15 10 -16 0
15 10 16 0
-15 -10 16 0
-17 -1 0
-17 16 0
1 -16 17 0
-18 4 0
-18 13 0
-4 -13 18 0
-17 18 -19 0
17 -18 -19 0
-17 -18 19 0
17 18 19 0
17 -8 -20 0
-17 8 -20 0
17 8 20 0
-17 -8 20 0
-21 -13 0
-21 -20 0
13 20 21 0
-22 19 0
-22 21 0
-19 -21 22 0
22 -13 -23 0
-22 13 -23 0
22 13 23 0
-22 -13 23 0
-24 -16 0
-24 -18 0
16 18 24 0
-25 24 0
-25 9 0
-24 -9 25 0
-26 5 0
-26 -25 0
-5 25 26 0
-27 3 0
-27 -4 0
-3 4 27 0
-28 26 0
-28 27 0
-26 -27 28 0
28 26 -29 0
-28 -26 -29 0
28 -26 29 0
-28 26 29 0
-30 -29 0
-30 13 0
29 -13 30 0
31 23 0
31 -30 0
-23 30 -31 0
-32 -31 0
-32 -12 0
31 12 32 0
-33 -5 -34 0
33 5 -34 0
-33 5 34 0
33 -5 34 0
36 3 0
36 -35 0
-3 35 -36 0
-37 -36 0
-37 35 0
36 -35 37 0
38 34 0
38 37 0
-34 -37 -38 0
-39 -32 0
-39 38 0
32 -38 39 0
40 -3 0
40 15 0
3 -15 -40 0
40 36 -41 0
-40 -36 -41 0
40 -36 41 0
-40 36 41 0
16 -29 -42 0
-16 29 -42 0
16 29 42 0
-16 -29 42 0
-43 33 0
-43 -35 0
-33 35 43 0
-44 -43 0
-44 36 0
43 -36 44 0
-45 4 0
-45 44 0
-4 -44 45 0
42 45 -46 0
-42 -45 -46 0
42 -45 46 0
-42 45 46 0
-47 7 0
-47 30 0
-7 -30 47 0
46 -47 -48 0
-46 47 -48 0
46 47 48 0
-46 -47 48 0
49 41 0
49 -48 0
-41 48 -49 0
52 5 0
52 51 0
-5 -51 -52 0
-40 52 -53 0
40 -52 -53 0
-40 -52 53 0
40 52 53 0
54 -50 0
54 53 0
50 -53 -54 0
55 49 0
55 -54 0
-49 54 -55 0
-56 -35 0
-56 3 0
35 -3 56 0
57 -55 0
57 -56 0
55 56 -57 0
58 -8 0
58 28 0
8 -28 -58 0
-59 -58 0
-59 7 0
58 -7 59 0
60 -59 0
60 22 0
59 -22 -60 0
57 60 -61 0
-57 -60 -61 0
57 -60 61 0
-57 60 61 0
39 61 -62 0
-39 -61 -62 0
39 -61 62 0
-39 61 62 0
-63 -14 0
-63 -62 0
14 62 63 0
64 5 0
64 7 0
-5 -7 -64 0
-65 3 0
-65 9 0
-3 -9 65 0
-66 13 0
-66 65 0
-13 -65 66 0
64 66 -67 0
-64 -66 -67 0
64 -66 67 0
-64 66 67 0
-21 -51 -68 0
21 51 -68 0
-21 51 68 0
21 -51 68 0
-69 68 0
-69 -28 0
-68 28 69 0
51 -33 -70 0
-51 33 -70 0
51 33 70 0
-51 -33 70 0
71 -25 0
71 52 0
25 -52 -71 0
71 40 -72 0
-71 -40 -72 0
71 -40 72 0
-71 40 72 0
73 -72 0
73 24 0
72 -24 -73 0
-74 -70 0
-74 -73 0
70 73 74 0
69 74 -75 0
-69 -74 -75 0
69 -74 75 0
-69 74 75 0
67 -75 -76 0
-67 75 -76 0
67 75 76 0
-67 -75 76 0
-78 -77 0
-78 18 0
77 -18 78 0
-79 50 0
-79 -17 0
-50 17 79 0
80 13 0
80 -44 0
-13 44 -80 0
79 80 -81 0
-79 -80 -81 0
79 -80 81 0
-79 80 81 0
82 77 0
82 13 0
-77 -13 -82 0
83 -7 0
83 82 0
7 -82 -83 0
-81 -83 -84 0
81 83 -84 0
-81 83 84 0
81 -83 84 0
-15 -85 0
15 -85 0
85 -8 -86 0
-85 8 -86 0
85 8 86 0
-85 -8 86 0
-86 -82 -87 0
86 82 -87 0
-86 82 87 0
86 -82 87 0
88 36 0
88 -87 0
-36 87 -88 0
89 -2 0
89 -16 0
2 16 -89 0
90 88 0
90 89 0
-88 -89 -90 0
50 -33 -91 0
-50 33 -91 0
50 33 91 0
-50 -33 91 0
-92 91 0
-92 5 0
-91 -5 92 0
-90 92 -93 0
90 -92 -93 0
-90 -92 93 0
90 92 93 0
-94 84 0
-94 -93 0
-84 93 94 0
95 -22 0
95 -33 0
22 33 -95 0
-96 53 0
-96 7 0
-53 -7 96 0
36 -24 -97 0
-36 24 -97 0
36 24 97 0
-36 -24 97 0
4 98 -99 0
-4 -98 -99 0
4 -98 99 0
-4 98 99 0
-100 -15 0
-100 5 0
15 -5 100 0
43 -100 -101 0
-43 100 -101 0
43 100 101 0
-43 -100 101 0
102 -77 0
102 -85 0
77 85 -102 0
101 -102 -103 0
-101 102 -103 0
101 102 103 0
-101 -102 103 0
99 103 -104 0
-99 -103 -104 0
99 -103 104 0
-99 103 104 0
-97 -104 -105 0
97 104 -105 0
-97 104 105 0
97 -104 105 0
-106 -96 0
-106 105 0
96 -105 106 0
107 -95 0
107 106 0
95 -106 -107 0
108 -94 0
108 107 0
94 -107 -108 0
-78 -108 -109 0
78 108 -109 0
-78 108 109 0
78 -108 109 0
110 -21 0
110 -3 0
21 3 -110 0
111 45 0
111 13 0
-45 -13 -111 0
112 -110 0
112 111 0
110 -111 -112 0
-109 -112 -113 0
109 112 -113 0
-109 112 113 0
109 -112 113 0
-76 113 -114 0
76 -113 -114 0
-76 -113 114 0
76 113 114 0
-115 63 0
-115 -114 0
-63 114 115 0
-3 -97 50 -51 -113 0
100 -82 -107 84 -87 110 0
63 -61 -3 -115 -100 0
32 -62 0
-70 76 77 -59 0
-53 -64 28 85 0
-36 34 -14 37 0
10 -49 52 0
-76 -28 -111 0
-10 -52 14 0
-8 57 14 0
-110 -14 72 -43 0
52 -57 0
-43 -54 72 0
-10 -75 -105 -38 0
-94 -47 -33 -28 0
-20 90 -5 0
-110 -109 22 -35 29 -3 0
72 20 38 0
94 -31 -37 -66 0
-68 8 94 22 73 1 0
30 -109 8 103 0
-14 -18 -85 87 -27 28 0
-53 72 -52 95 55 114 0
-50 9 -36 -30 34 0
91 23 0
-18 64 0
36 56 38 -115 -78 -102 0
88 -56 0
52 18 98 30 105 0
-47 42 86 93 0
-69 31 60 -6 0
-104 75 16 -29 -74 -39 0
41 -37 70 -97 -48 0
-107 -25 -4 0
23 -16 24 0
56 30 -85 -35 0
-53 -111 -88 -107 28 69 0
-38 -78 34 -98 0
3 -60 92 94 58 -41 0
58 -59 50 0
61 -57 76 -46 -82 0
85 40 91 -18 34 0
-85 32 95 -13 21 0
82 -67 18 -90 0
86 -110 -36 -57 17 0
27 -104 -71 22 0
-4 -18 43 0
93 -84 24 -114 0
35 -92 -73 88 0
-4 -45 85 95 92 0
-97 53 29 -100 -108 0
81 14 0
96 -49 0
6 -110 -44 0
54 -71 0
32 98 33 -8 0
-6 115 0
-15 53 98 13 -55 0
-14 -55 -94 -65 0
-13 11 73 32 87 -45 0
-33 74 -69 0
91 -111 -18 43 63 40 0
-69 87 -2 112 -61 105 0
-98 -68 -10 83 -45 108 0
73 -38 -90 95 -115 -15 0
-22 83 -95 110 0
-30 -108 -9 0
115 0
